<number of tasks>
89

<cycle time>
97

<task times>
1 28
2 17
3 7
4 10
5 12
6 16
7 13
8 8
9 13
10 24
11 16
12 24
13 12
14 20
15 22
16 22
17 22
18 47
19 6
20 12
21 6
22 22
23 7
24 14
25 68
26 15
27 8
28 74
29 32
30 11
31 18
32 15
33 42
34 27
35 38
36 38
37 26
38 35
39 31
40 8
41 14
42 8
43 8
44 8
45 17
46 7
47 19
48 12
49 24
50 26
51 22
52 14
53 27
54 60
55 4
56 2
57 1
58 9
59 5
60 6
61 7
62 12
63 2
64 11
65 14
66 6
67 21
68 14
69 1
70 6
71 21
72 11
73 14
74 28
75 12
76 11
77 30
78 22
79 14
80 31
81 18
82 16
83 7
84 38
85 8
86 31
87 29
88 12
89 18

<precedence relations>
1,2
2,3
3,4
4,5
4,6
4,7
4,8
4,9
5,10
6,11
7,12
8,18
9,18
10,14
11,12
12,13
13,14
14,15
14,16
15,17
16,54
17,18
18,19
18,20
19,22
20,21
20,28
21,54
22,23
23,24
24,25
25,26
25,27
25,29
26,37
27,33
28,29
29,31
30,54
31,32
32,33
33,34
34,35
35,36
35,37
36,38
37,38
38,39
39,40
39,41
39,42
39,43
40,44
41,53
42,53
43,45
44,52
45,46
46,47
47,48
47,49
49,50
50,51
51,52
52,53
53,68
53,69
53,70
53,71
54,55
55,56
56,57
57,58
57,59
57,60
57,61
57,62
57,63
57,64
57,65
57,66
58,67
59,67
60,67
61,67
62,67
63,67
64,67
65,67
66,67
67,73
68,72
69,72
70,72
71,73
72,78
72,80
73,74
74,75
74,76
75,77
76,81
77,78
78,79
79,81
80,81
81,82
81,84
81,85
82,83
83,86
84,86
85,86
86,87
87,88
87,89

<setup times forward>
4,5:1
4,7:1
4,9:1
5,6:1
5,8:1
5,9:2
5,13:2
5,30:1
6,5:1
6,7:1
6,9:1
6,10:1
6,11:1
7,6:1
7,8:1
7,9:2
7,30:1
8,5:1
8,7:1
8,9:1
8,10:1
8,11:1
8,12:1
8,13:1
8,14:1
8,15:1
8,17:1
9,5:2
9,6:1
9,7:2
9,8:1
9,10:2
9,11:2
9,12:2
9,16:1
9,18:1
9,30:1
10,6:1
10,8:1
10,9:2
10,13:2
10,14:2
10,30:1
11,8:1
11,9:2
11,30:1
12,8:1
12,9:2
12,13:2
12,30:1
13,5:2
13,8:1
13,10:2
13,30:1
14,8:1
14,16:1
14,30:1
15,8:1
15,16:1
15,30:1
16,9:1
16,15:1
16,17:1
16,26:1
16,28:1
16,33:2
16,34:2
16,35:1
16,36:1
16,37:2
16,38:2
16,39:2
16,48:2
16,52:1
16,53:1
16,54:1
16,68:1
16,69:2
16,70:2
16,71:1
16,72:2
16,80:2
17,8:1
17,16:1
17,18:1
17,30:1
19,28:1
19,54:1
19,55:1
19,56:1
19,57:1
19,58:1
19,59:2
19,62:1
19,63:1
19,64:1
19,65:1
19,67:1
20,26:1
20,28:1
21,26:1
21,28:1
21,33:2
21,34:2
21,35:1
21,36:1
21,37:2
21,38:2
21,39:2
21,48:2
21,52:1
21,53:1
21,54:1
21,68:1
21,69:2
21,70:2
21,71:1
21,72:2
21,80:2
22,28:1
22,54:1
22,55:1
22,56:1
22,57:1
22,58:1
22,59:2
22,62:1
22,63:1
22,64:1
22,65:1
22,67:1
23,28:1
23,54:1
23,55:1
23,56:1
23,57:1
23,58:1
23,59:2
23,62:1
23,63:1
23,64:1
23,65:1
23,67:1
24,28:1
24,54:1
24,55:1
24,56:1
24,57:1
24,58:1
24,59:2
24,62:1
24,63:1
24,64:1
24,65:1
24,67:1
25,26:1
25,28:1
25,54:1
25,55:1
25,56:1
25,57:1
25,58:1
25,59:2
25,62:1
25,63:1
25,64:1
25,65:1
25,67:1
26,16:1
26,20:1
26,21:1
26,27:1
26,29:1
26,30:1
26,31:1
26,32:1
26,33:1
26,34:1
26,37:1
26,54:2
26,55:2
26,56:2
26,57:2
26,59:1
26,60:1
26,61:1
26,62:2
26,63:2
26,65:2
26,66:1
26,67:2
27,26:1
27,28:1
27,33:2
27,54:1
27,55:1
27,56:1
27,57:1
27,58:1
27,59:2
27,62:1
27,63:1
27,64:1
27,65:1
27,67:1
28,16:1
28,19:1
28,21:1
28,22:1
28,23:1
28,24:1
28,25:1
28,27:1
28,29:1
28,30:1
28,54:2
28,55:2
28,56:2
28,57:2
28,59:1
28,60:1
28,61:1
28,62:2
28,63:2
28,65:2
28,66:1
28,67:2
29,26:1
29,54:1
29,55:1
29,56:1
29,57:1
29,58:1
29,59:2
29,62:1
29,63:1
29,64:1
29,65:1
29,67:1
30,5:1
30,7:1
30,9:1
30,10:1
30,11:1
30,12:1
30,13:1
30,14:1
30,15:1
30,17:1
30,26:1
30,28:1
30,33:2
30,34:2
30,35:1
30,36:1
30,37:2
30,38:2
30,39:2
30,48:2
30,52:1
30,53:1
30,54:1
30,68:1
30,69:2
30,70:2
30,71:1
30,72:2
30,80:2
31,26:1
31,54:1
31,55:1
31,56:1
31,57:1
31,58:1
31,59:2
31,62:1
31,63:1
31,64:1
31,65:1
31,67:1
32,26:1
32,33:2
32,54:1
32,55:1
32,56:1
32,57:1
32,58:1
32,59:2
32,62:1
32,63:1
32,64:1
32,65:1
32,67:1
33,16:2
33,21:2
33,26:1
33,30:2
33,54:3
33,55:3
33,56:3
33,57:3
33,58:1
33,60:2
33,61:2
33,62:3
33,63:3
33,64:1
33,65:3
33,66:2
33,67:3
34,16:2
34,21:2
34,26:1
34,30:2
34,35:1
34,54:3
34,55:3
34,56:3
34,57:3
34,58:1
34,60:2
34,61:2
34,62:3
34,63:3
34,64:1
34,65:3
34,66:2
34,67:3
35,16:1
35,21:1
35,30:1
35,37:1
35,54:2
35,55:2
35,56:2
35,57:2
35,59:1
35,60:1
35,61:1
35,62:2
35,63:2
35,65:2
35,66:1
35,67:2
36,16:1
36,21:1
36,30:1
36,37:1
36,38:1
36,54:2
36,55:2
36,56:2
36,57:2
36,59:1
36,60:1
36,61:1
36,62:2
36,63:2
36,65:2
36,66:1
36,67:2
37,16:2
37,21:2
37,30:2
37,36:1
37,54:3
37,55:3
37,56:3
37,57:3
37,58:1
37,60:2
37,61:2
37,62:3
37,63:3
37,64:1
37,65:3
37,66:2
37,67:3
38,16:2
38,21:2
38,30:2
38,54:3
38,55:3
38,56:3
38,57:3
38,58:1
38,60:2
38,61:2
38,62:3
38,63:3
38,64:1
38,65:3
38,66:2
38,67:3
39,16:2
39,21:2
39,30:2
39,40:2
39,41:2
39,42:2
39,43:2
39,54:3
39,55:3
39,56:3
39,57:3
39,58:1
39,60:2
39,61:2
39,62:3
39,63:3
39,64:1
39,65:3
39,66:2
39,67:3
40,48:2
40,54:1
40,55:1
40,56:1
40,57:1
40,58:1
40,59:2
40,62:1
40,63:1
40,64:1
40,65:1
40,67:1
41,48:2
41,52:1
41,53:1
41,54:1
41,55:1
41,56:1
41,57:1
41,58:1
41,59:2
41,62:1
41,63:1
41,64:1
41,65:1
41,67:1
42,48:2
42,52:1
42,53:1
42,54:1
42,55:1
42,56:1
42,57:1
42,58:1
42,59:2
42,62:1
42,63:1
42,64:1
42,65:1
42,67:1
43,54:1
43,55:1
43,56:1
43,57:1
43,58:1
43,59:2
43,62:1
43,63:1
43,64:1
43,65:1
43,67:1
44,48:2
44,52:1
44,54:1
44,55:1
44,56:1
44,57:1
44,58:1
44,59:2
44,62:1
44,63:1
44,64:1
44,65:1
44,67:1
45,54:1
45,55:1
45,56:1
45,57:1
45,58:1
45,59:2
45,62:1
45,63:1
45,64:1
45,65:1
45,67:1
46,54:1
46,55:1
46,56:1
46,57:1
46,58:1
46,59:2
46,62:1
46,63:1
46,64:1
46,65:1
46,67:1
47,48:2
47,54:1
47,55:1
47,56:1
47,57:1
47,58:1
47,59:2
47,62:1
47,63:1
47,64:1
47,65:1
47,67:1
48,16:2
48,21:2
48,30:2
48,40:2
48,41:2
48,42:2
48,44:2
48,49:2
48,50:2
48,51:2
48,52:3
48,53:3
48,54:3
48,55:3
48,56:3
48,57:3
48,58:1
48,60:2
48,61:2
48,62:3
48,63:3
48,64:1
48,65:3
48,66:2
48,67:3
48,68:3
48,71:3
48,79:3
48,81:3
48,82:3
48,83:1
48,84:3
48,85:3
48,86:1
48,87:1
48,88:1
48,89:1
49,48:2
49,54:1
49,55:1
49,56:1
49,57:1
49,58:1
49,59:2
49,62:1
49,63:1
49,64:1
49,65:1
49,67:1
50,48:2
50,54:1
50,55:1
50,56:1
50,57:1
50,58:1
50,59:2
50,62:1
50,63:1
50,64:1
50,65:1
50,67:1
51,48:2
51,52:1
51,54:1
51,55:1
51,56:1
51,57:1
51,58:1
51,59:2
51,62:1
51,63:1
51,64:1
51,65:1
51,67:1
52,16:1
52,21:1
52,30:1
52,41:1
52,42:1
52,48:3
52,58:2
52,59:3
52,60:1
52,61:1
52,64:2
52,66:1
53,16:1
53,21:1
53,30:1
53,48:3
53,58:2
53,59:3
53,60:1
53,61:1
53,64:2
53,66:1
53,69:3
53,70:3
54,19:1
54,22:1
54,23:1
54,24:1
54,25:1
54,26:2
54,27:1
54,28:2
54,29:1
54,31:1
54,32:1
54,33:3
54,34:3
54,35:2
54,36:2
54,37:3
54,38:3
54,39:3
54,40:1
54,41:1
54,42:1
54,43:1
54,44:1
54,45:1
54,46:1
54,47:1
54,48:3
54,49:1
54,50:1
54,51:1
54,69:3
54,70:3
54,72:3
54,80:3
55,19:1
55,22:1
55,23:1
55,24:1
55,25:1
55,26:2
55,27:1
55,28:2
55,29:1
55,31:1
55,32:1
55,33:3
55,34:3
55,35:2
55,36:2
55,37:3
55,38:3
55,39:3
55,40:1
55,41:1
55,42:1
55,43:1
55,44:1
55,45:1
55,46:1
55,47:1
55,48:3
55,49:1
55,50:1
55,51:1
55,69:3
55,70:3
55,72:3
55,80:3
56,19:1
56,22:1
56,23:1
56,24:1
56,25:1
56,26:2
56,27:1
56,28:2
56,29:1
56,31:1
56,32:1
56,33:3
56,34:3
56,35:2
56,36:2
56,37:3
56,38:3
56,39:3
56,40:1
56,41:1
56,42:1
56,43:1
56,44:1
56,45:1
56,46:1
56,47:1
56,48:3
56,49:1
56,50:1
56,51:1
56,69:3
56,70:3
56,72:3
56,80:3
57,19:1
57,22:1
57,23:1
57,24:1
57,25:1
57,26:2
57,27:1
57,28:2
57,29:1
57,31:1
57,32:1
57,33:3
57,34:3
57,35:2
57,36:2
57,37:3
57,38:3
57,39:3
57,40:1
57,41:1
57,42:1
57,43:1
57,44:1
57,45:1
57,46:1
57,47:1
57,48:3
57,49:1
57,50:1
57,51:1
57,58:2
57,59:3
57,60:1
57,61:1
57,64:2
57,66:1
57,69:3
57,70:3
57,72:3
57,80:3
58,19:1
58,22:1
58,23:1
58,24:1
58,25:1
58,27:1
58,29:1
58,31:1
58,32:1
58,33:1
58,34:1
58,37:1
58,38:1
58,39:1
58,40:1
58,41:1
58,42:1
58,43:1
58,44:1
58,45:1
58,46:1
58,47:1
58,48:1
58,49:1
58,50:1
58,51:1
58,52:2
58,53:2
58,59:1
58,60:1
58,61:1
58,62:2
58,63:2
58,65:2
58,66:1
58,67:2
58,68:2
58,69:1
58,70:1
58,71:2
58,72:1
58,80:1
59,19:2
59,22:2
59,23:2
59,24:2
59,25:2
59,26:1
59,27:2
59,28:1
59,29:2
59,31:2
59,32:2
59,35:1
59,36:1
59,40:2
59,41:2
59,42:2
59,43:2
59,44:2
59,45:2
59,46:2
59,47:2
59,49:2
59,50:2
59,51:2
59,52:3
59,53:3
59,58:1
59,60:2
59,61:2
59,62:3
59,63:3
59,64:1
59,65:3
59,66:2
59,67:3
59,68:3
59,71:3
60,26:1
60,28:1
60,33:2
60,34:2
60,35:1
60,36:1
60,37:2
60,38:2
60,39:2
60,48:2
60,52:1
60,53:1
60,58:1
60,59:2
60,62:1
60,63:1
60,64:1
60,65:1
60,67:1
60,68:1
60,69:2
60,70:2
60,71:1
60,72:2
60,80:2
61,26:1
61,28:1
61,33:2
61,34:2
61,35:1
61,36:1
61,37:2
61,38:2
61,39:2
61,48:2
61,52:1
61,53:1
61,58:1
61,59:2
61,62:1
61,63:1
61,64:1
61,65:1
61,67:1
61,68:1
61,69:2
61,70:2
61,71:1
61,72:2
61,80:2
62,19:1
62,22:1
62,23:1
62,24:1
62,25:1
62,26:2
62,27:1
62,28:2
62,29:1
62,31:1
62,32:1
62,33:3
62,34:3
62,35:2
62,36:2
62,37:3
62,38:3
62,39:3
62,40:1
62,41:1
62,42:1
62,43:1
62,44:1
62,45:1
62,46:1
62,47:1
62,48:3
62,49:1
62,50:1
62,51:1
62,58:2
62,59:3
62,60:1
62,61:1
62,64:2
62,66:1
62,69:3
62,70:3
62,72:3
62,80:3
63,19:1
63,22:1
63,23:1
63,24:1
63,25:1
63,26:2
63,27:1
63,28:2
63,29:1
63,31:1
63,32:1
63,33:3
63,34:3
63,35:2
63,36:2
63,37:3
63,38:3
63,39:3
63,40:1
63,41:1
63,42:1
63,43:1
63,44:1
63,45:1
63,46:1
63,47:1
63,48:3
63,49:1
63,50:1
63,51:1
63,58:2
63,59:3
63,60:1
63,61:1
63,64:2
63,66:1
63,69:3
63,70:3
63,72:3
63,80:3
64,19:1
64,22:1
64,23:1
64,24:1
64,25:1
64,27:1
64,29:1
64,31:1
64,32:1
64,33:1
64,34:1
64,37:1
64,38:1
64,39:1
64,40:1
64,41:1
64,42:1
64,43:1
64,44:1
64,45:1
64,46:1
64,47:1
64,48:1
64,49:1
64,50:1
64,51:1
64,52:2
64,53:2
64,59:1
64,60:1
64,61:1
64,62:2
64,63:2
64,65:2
64,66:1
64,67:2
64,68:2
64,69:1
64,70:1
64,71:2
64,72:1
64,80:1
65,19:1
65,22:1
65,23:1
65,24:1
65,25:1
65,26:2
65,27:1
65,28:2
65,29:1
65,31:1
65,32:1
65,33:3
65,34:3
65,35:2
65,36:2
65,37:3
65,38:3
65,39:3
65,40:1
65,41:1
65,42:1
65,43:1
65,44:1
65,45:1
65,46:1
65,47:1
65,48:3
65,49:1
65,50:1
65,51:1
65,58:2
65,59:3
65,60:1
65,61:1
65,64:2
65,66:1
65,69:3
65,70:3
65,72:3
65,80:3
66,26:1
66,28:1
66,33:2
66,34:2
66,35:1
66,36:1
66,37:2
66,38:2
66,39:2
66,48:2
66,52:1
66,53:1
66,58:1
66,59:2
66,62:1
66,63:1
66,64:1
66,65:1
66,67:1
66,68:1
66,69:2
66,70:2
66,71:1
66,72:2
66,80:2
67,19:1
67,22:1
67,23:1
67,24:1
67,25:1
67,26:2
67,27:1
67,28:2
67,29:1
67,31:1
67,32:1
67,33:3
67,34:3
67,35:2
67,36:2
67,37:3
67,38:3
67,39:3
67,40:1
67,41:1
67,42:1
67,43:1
67,44:1
67,45:1
67,46:1
67,47:1
67,48:3
67,49:1
67,50:1
67,51:1
67,69:3
67,70:3
67,72:3
67,73:3
67,80:3
68,16:1
68,21:1
68,30:1
68,48:3
68,58:2
68,59:3
68,60:1
68,61:1
68,64:2
68,66:1
68,69:3
68,70:3
68,72:3
68,73:3
68,74:3
68,75:3
68,76:3
68,77:3
69,16:2
69,21:2
69,30:2
69,54:3
69,55:3
69,56:3
69,57:3
69,58:1
69,60:2
69,61:2
69,62:3
69,63:3
69,64:1
69,65:3
69,66:2
69,67:3
69,68:3
69,71:3
70,16:2
70,21:2
70,30:2
70,54:3
70,55:3
70,56:3
70,57:3
70,58:1
70,60:2
70,61:2
70,62:3
70,63:3
70,64:1
70,65:3
70,66:2
70,67:3
70,68:3
70,71:3
71,16:1
71,21:1
71,30:1
71,48:3
71,58:2
71,59:3
71,60:1
71,61:1
71,64:2
71,66:1
71,69:3
71,70:3
71,72:3
71,73:3
71,80:3
72,16:2
72,21:2
72,30:2
72,54:3
72,55:3
72,56:3
72,57:3
72,58:1
72,60:2
72,61:2
72,62:3
72,63:3
72,64:1
72,65:3
72,66:2
72,67:3
72,71:3
73,68:3
74,68:3
75,68:3
76,68:3
76,79:3
76,81:3
77,68:3
78,79:3
79,48:3
79,76:3
79,80:3
80,16:2
80,21:2
80,30:2
80,54:3
80,55:3
80,56:3
80,57:3
80,58:1
80,60:2
80,61:2
80,62:3
80,63:3
80,64:1
80,65:3
80,66:2
80,67:3
80,71:3
80,79:3
80,81:3
81,48:3
82,48:3
82,83:2
83,48:1
83,84:2
83,85:2
84,48:3
84,83:2
84,86:2
85,48:3
85,83:2
85,86:2
86,48:1
87,48:1
88,48:1
89,48:1

<setup times backward>
5,1:1
5,2:1
5,3:1
5,4:1
5,6:1
5,8:1
5,9:2
5,13:2
5,30:1
6,9:1
7,1:1
7,2:1
7,3:1
7,4:1
7,6:1
7,8:1
7,9:2
7,30:1
8,9:1
8,13:1
8,14:1
8,15:1
8,17:1
10,1:1
10,2:1
10,3:1
10,4:1
10,6:1
10,8:1
10,9:2
10,13:2
10,30:1
11,1:1
11,2:1
11,3:1
11,4:1
11,6:1
11,8:1
11,9:2
11,30:1
12,1:1
12,2:1
12,3:1
12,4:1
12,6:1
12,8:1
12,9:2
12,30:1
16,9:1
16,13:1
16,14:1
16,15:1
16,17:1
16,26:1
16,28:1
16,33:2
16,34:2
16,35:1
16,36:1
16,37:2
16,38:2
16,39:2
16,48:2
16,69:2
16,70:2
16,72:2
16,80:2
18,9:1
18,13:1
18,14:1
18,15:1
18,17:1
19,9:1
19,13:1
19,14:1
19,15:1
19,17:1
19,28:1
19,58:1
19,59:2
19,64:1
20,9:1
20,13:1
20,14:1
20,15:1
20,17:1
20,26:1
21,9:1
21,13:1
21,14:1
21,15:1
21,17:1
21,26:1
21,28:1
21,33:2
21,34:2
21,35:1
21,36:1
21,37:2
21,38:2
21,39:2
21,48:2
21,69:2
21,70:2
21,72:2
21,80:2
22,9:1
22,13:1
22,14:1
22,15:1
22,17:1
22,28:1
22,58:1
22,59:2
22,64:1
23,9:1
23,13:1
23,14:1
23,15:1
23,17:1
23,28:1
23,58:1
23,59:2
23,64:1
24,9:1
24,13:1
24,14:1
24,15:1
24,17:1
24,28:1
24,58:1
24,59:2
24,64:1
25,9:1
25,13:1
25,14:1
25,15:1
25,17:1
25,28:1
25,58:1
25,59:2
25,64:1
26,33:1
26,34:1
26,59:1
27,9:1
27,13:1
27,14:1
27,15:1
27,17:1
27,26:1
27,28:1
27,58:1
27,59:2
27,64:1
28,59:1
29,9:1
29,13:1
29,14:1
29,15:1
29,17:1
29,26:1
29,28:1
29,58:1
29,59:2
29,64:1
30,9:1
30,13:1
30,14:1
30,15:1
30,17:1
30,26:1
30,28:1
30,33:2
30,34:2
30,35:1
30,36:1
30,37:2
30,38:2
30,39:2
30,48:2
30,69:2
30,70:2
30,72:2
30,80:2
31,9:1
31,13:1
31,14:1
31,15:1
31,17:1
31,26:1
31,28:1
31,58:1
31,59:2
31,64:1
32,9:1
32,13:1
32,14:1
32,15:1
32,17:1
32,26:1
32,28:1
32,58:1
32,59:2
32,64:1
35,33:1
35,34:1
35,59:1
36,33:1
36,34:1
36,37:1
36,59:1
40,9:1
40,13:1
40,14:1
40,15:1
40,17:1
40,26:1
40,28:1
40,33:2
40,34:2
40,35:1
40,36:1
40,37:2
40,38:2
40,39:2
40,48:2
40,58:1
40,59:2
40,64:1
41,9:1
41,13:1
41,14:1
41,15:1
41,17:1
41,26:1
41,28:1
41,33:2
41,34:2
41,35:1
41,36:1
41,37:2
41,38:2
41,39:2
41,48:2
41,58:1
41,59:2
41,64:1
42,9:1
42,13:1
42,14:1
42,15:1
42,17:1
42,26:1
42,28:1
42,33:2
42,34:2
42,35:1
42,36:1
42,37:2
42,38:2
42,39:2
42,48:2
42,58:1
42,59:2
42,64:1
43,9:1
43,13:1
43,14:1
43,15:1
43,17:1
43,26:1
43,28:1
43,33:2
43,34:2
43,35:1
43,36:1
43,37:2
43,38:2
43,39:2
43,58:1
43,59:2
43,64:1
44,9:1
44,13:1
44,14:1
44,15:1
44,17:1
44,26:1
44,28:1
44,33:2
44,34:2
44,35:1
44,36:1
44,37:2
44,38:2
44,39:2
44,48:2
44,58:1
44,59:2
44,64:1
45,9:1
45,13:1
45,14:1
45,15:1
45,17:1
45,26:1
45,28:1
45,33:2
45,34:2
45,35:1
45,36:1
45,37:2
45,38:2
45,39:2
45,58:1
45,59:2
45,64:1
46,9:1
46,13:1
46,14:1
46,15:1
46,17:1
46,26:1
46,28:1
46,33:2
46,34:2
46,35:1
46,36:1
46,37:2
46,38:2
46,39:2
46,58:1
46,59:2
46,64:1
47,9:1
47,13:1
47,14:1
47,15:1
47,17:1
47,26:1
47,28:1
47,33:2
47,34:2
47,35:1
47,36:1
47,37:2
47,38:2
47,39:2
47,58:1
47,59:2
47,64:1
49,9:1
49,13:1
49,14:1
49,15:1
49,17:1
49,26:1
49,28:1
49,33:2
49,34:2
49,35:1
49,36:1
49,37:2
49,38:2
49,39:2
49,48:2
49,58:1
49,59:2
49,64:1
50,9:1
50,13:1
50,14:1
50,15:1
50,17:1
50,26:1
50,28:1
50,33:2
50,34:2
50,35:1
50,36:1
50,37:2
50,38:2
50,39:2
50,48:2
50,58:1
50,59:2
50,64:1
51,9:1
51,13:1
51,14:1
51,15:1
51,17:1
51,26:1
51,28:1
51,33:2
51,34:2
51,35:1
51,36:1
51,37:2
51,38:2
51,39:2
51,48:2
51,58:1
51,59:2
51,64:1
52,1:1
52,2:1
52,3:1
52,4:1
52,6:1
52,8:1
52,9:2
52,13:2
52,14:2
52,15:2
52,16:1
52,17:2
52,18:1
52,19:1
52,20:1
52,21:1
52,22:1
52,23:1
52,24:1
52,25:1
52,26:2
52,27:1
52,28:2
52,29:1
52,30:1
52,31:1
52,32:1
52,33:3
52,34:3
52,35:2
52,36:2
52,37:3
52,38:3
52,39:3
52,40:1
52,41:1
52,42:1
52,43:1
52,44:1
52,45:1
52,46:1
52,47:1
52,48:3
52,49:1
52,50:1
52,51:1
52,58:2
52,59:3
52,60:1
52,61:1
52,64:2
52,66:1
53,1:1
53,2:1
53,3:1
53,4:1
53,6:1
53,8:1
53,9:2
53,13:2
53,14:2
53,15:2
53,16:1
53,17:2
53,18:1
53,19:1
53,20:1
53,21:1
53,22:1
53,23:1
53,24:1
53,25:1
53,26:2
53,27:1
53,28:2
53,29:1
53,30:1
53,31:1
53,32:1
53,33:3
53,34:3
53,35:2
53,36:2
53,37:3
53,38:3
53,39:3
53,40:1
53,41:1
53,42:1
53,43:1
53,44:1
53,45:1
53,46:1
53,47:1
53,48:3
53,49:1
53,50:1
53,51:1
53,58:2
53,59:3
53,60:1
53,61:1
53,64:2
53,66:1
54,1:1
54,2:1
54,3:1
54,4:1
54,6:1
54,8:1
54,9:2
54,13:2
54,14:2
54,15:2
54,16:1
54,17:2
54,18:1
54,19:1
54,20:1
54,21:1
54,22:1
54,23:1
54,24:1
54,25:1
54,26:2
54,27:1
54,28:2
54,29:1
54,30:1
54,31:1
54,32:1
54,33:3
54,34:3
54,35:2
54,36:2
54,37:3
54,38:3
54,39:3
54,40:1
54,41:1
54,42:1
54,43:1
54,44:1
54,45:1
54,46:1
54,47:1
54,48:3
54,49:1
54,50:1
54,51:1
54,69:3
54,70:3
54,72:3
54,80:3
55,1:1
55,2:1
55,3:1
55,4:1
55,6:1
55,8:1
55,9:2
55,13:2
55,14:2
55,15:2
55,16:1
55,17:2
55,18:1
55,19:1
55,20:1
55,21:1
55,22:1
55,23:1
55,24:1
55,25:1
55,26:2
55,27:1
55,28:2
55,29:1
55,30:1
55,31:1
55,32:1
55,33:3
55,34:3
55,35:2
55,36:2
55,37:3
55,38:3
55,39:3
55,40:1
55,41:1
55,42:1
55,43:1
55,44:1
55,45:1
55,46:1
55,47:1
55,48:3
55,49:1
55,50:1
55,51:1
55,69:3
55,70:3
55,72:3
55,80:3
56,1:1
56,2:1
56,3:1
56,4:1
56,6:1
56,8:1
56,9:2
56,13:2
56,14:2
56,15:2
56,16:1
56,17:2
56,18:1
56,19:1
56,20:1
56,21:1
56,22:1
56,23:1
56,24:1
56,25:1
56,26:2
56,27:1
56,28:2
56,29:1
56,30:1
56,31:1
56,32:1
56,33:3
56,34:3
56,35:2
56,36:2
56,37:3
56,38:3
56,39:3
56,40:1
56,41:1
56,42:1
56,43:1
56,44:1
56,45:1
56,46:1
56,47:1
56,48:3
56,49:1
56,50:1
56,51:1
56,69:3
56,70:3
56,72:3
56,80:3
57,1:1
57,2:1
57,3:1
57,4:1
57,6:1
57,8:1
57,9:2
57,13:2
57,14:2
57,15:2
57,16:1
57,17:2
57,18:1
57,19:1
57,20:1
57,21:1
57,22:1
57,23:1
57,24:1
57,25:1
57,26:2
57,27:1
57,28:2
57,29:1
57,30:1
57,31:1
57,32:1
57,33:3
57,34:3
57,35:2
57,36:2
57,37:3
57,38:3
57,39:3
57,40:1
57,41:1
57,42:1
57,43:1
57,44:1
57,45:1
57,46:1
57,47:1
57,48:3
57,49:1
57,50:1
57,51:1
57,69:3
57,70:3
57,72:3
57,80:3
58,33:1
58,34:1
58,37:1
58,38:1
58,39:1
58,48:1
58,59:1
58,69:1
58,70:1
58,72:1
58,80:1
60,9:1
60,13:1
60,14:1
60,15:1
60,17:1
60,26:1
60,28:1
60,33:2
60,34:2
60,35:1
60,36:1
60,37:2
60,38:2
60,39:2
60,48:2
60,58:1
60,59:2
60,64:1
60,69:2
60,70:2
60,72:2
60,80:2
61,9:1
61,13:1
61,14:1
61,15:1
61,17:1
61,26:1
61,28:1
61,33:2
61,34:2
61,35:1
61,36:1
61,37:2
61,38:2
61,39:2
61,48:2
61,58:1
61,59:2
61,64:1
61,69:2
61,70:2
61,72:2
61,80:2
62,1:1
62,2:1
62,3:1
62,4:1
62,6:1
62,8:1
62,9:2
62,13:2
62,14:2
62,15:2
62,16:1
62,17:2
62,18:1
62,19:1
62,20:1
62,21:1
62,22:1
62,23:1
62,24:1
62,25:1
62,26:2
62,27:1
62,28:2
62,29:1
62,30:1
62,31:1
62,32:1
62,33:3
62,34:3
62,35:2
62,36:2
62,37:3
62,38:3
62,39:3
62,40:1
62,41:1
62,42:1
62,43:1
62,44:1
62,45:1
62,46:1
62,47:1
62,48:3
62,49:1
62,50:1
62,51:1
62,58:2
62,59:3
62,60:1
62,61:1
62,64:2
62,66:1
62,69:3
62,70:3
62,72:3
62,80:3
63,1:1
63,2:1
63,3:1
63,4:1
63,6:1
63,8:1
63,9:2
63,13:2
63,14:2
63,15:2
63,16:1
63,17:2
63,18:1
63,19:1
63,20:1
63,21:1
63,22:1
63,23:1
63,24:1
63,25:1
63,26:2
63,27:1
63,28:2
63,29:1
63,30:1
63,31:1
63,32:1
63,33:3
63,34:3
63,35:2
63,36:2
63,37:3
63,38:3
63,39:3
63,40:1
63,41:1
63,42:1
63,43:1
63,44:1
63,45:1
63,46:1
63,47:1
63,48:3
63,49:1
63,50:1
63,51:1
63,58:2
63,59:3
63,60:1
63,61:1
63,64:2
63,66:1
63,69:3
63,70:3
63,72:3
63,80:3
64,33:1
64,34:1
64,37:1
64,38:1
64,39:1
64,48:1
64,59:1
64,69:1
64,70:1
64,72:1
64,80:1
65,1:1
65,2:1
65,3:1
65,4:1
65,6:1
65,8:1
65,9:2
65,13:2
65,14:2
65,15:2
65,16:1
65,17:2
65,18:1
65,19:1
65,20:1
65,21:1
65,22:1
65,23:1
65,24:1
65,25:1
65,26:2
65,27:1
65,28:2
65,29:1
65,30:1
65,31:1
65,32:1
65,33:3
65,34:3
65,35:2
65,36:2
65,37:3
65,38:3
65,39:3
65,40:1
65,41:1
65,42:1
65,43:1
65,44:1
65,45:1
65,46:1
65,47:1
65,48:3
65,49:1
65,50:1
65,51:1
65,58:2
65,59:3
65,60:1
65,61:1
65,64:2
65,66:1
65,69:3
65,70:3
65,72:3
65,80:3
66,9:1
66,13:1
66,14:1
66,15:1
66,17:1
66,26:1
66,28:1
66,33:2
66,34:2
66,35:1
66,36:1
66,37:2
66,38:2
66,39:2
66,48:2
66,58:1
66,59:2
66,64:1
66,69:2
66,70:2
66,72:2
66,80:2
67,1:1
67,2:1
67,3:1
67,4:1
67,6:1
67,8:1
67,9:2
67,13:2
67,14:2
67,15:2
67,16:1
67,17:2
67,18:1
67,19:1
67,20:1
67,21:1
67,22:1
67,23:1
67,24:1
67,25:1
67,26:2
67,27:1
67,28:2
67,29:1
67,30:1
67,31:1
67,32:1
67,33:3
67,34:3
67,35:2
67,36:2
67,37:3
67,38:3
67,39:3
67,40:1
67,41:1
67,42:1
67,43:1
67,44:1
67,45:1
67,46:1
67,47:1
67,48:3
67,49:1
67,50:1
67,51:1
67,58:2
67,59:3
67,60:1
67,61:1
67,64:2
67,66:1
67,69:3
67,70:3
67,72:3
67,80:3
68,1:1
68,2:1
68,3:1
68,4:1
68,6:1
68,8:1
68,9:2
68,13:2
68,14:2
68,15:2
68,16:1
68,17:2
68,18:1
68,19:1
68,20:1
68,21:1
68,22:1
68,23:1
68,24:1
68,25:1
68,26:2
68,27:1
68,28:2
68,29:1
68,30:1
68,31:1
68,32:1
68,33:3
68,34:3
68,35:2
68,36:2
68,37:3
68,38:3
68,39:3
68,40:1
68,41:1
68,42:1
68,43:1
68,44:1
68,45:1
68,46:1
68,47:1
68,48:3
68,49:1
68,50:1
68,51:1
68,58:2
68,59:3
68,60:1
68,61:1
68,64:2
68,66:1
68,69:3
68,70:3
68,73:3
68,74:3
68,75:3
68,76:3
68,77:3
71,1:1
71,2:1
71,3:1
71,4:1
71,6:1
71,8:1
71,9:2
71,13:2
71,14:2
71,15:2
71,16:1
71,17:2
71,18:1
71,19:1
71,20:1
71,21:1
71,22:1
71,23:1
71,24:1
71,25:1
71,26:2
71,27:1
71,28:2
71,29:1
71,30:1
71,31:1
71,32:1
71,33:3
71,34:3
71,35:2
71,36:2
71,37:3
71,38:3
71,39:3
71,40:1
71,41:1
71,42:1
71,43:1
71,44:1
71,45:1
71,46:1
71,47:1
71,48:3
71,49:1
71,50:1
71,51:1
71,58:2
71,59:3
71,60:1
71,61:1
71,64:2
71,66:1
71,69:3
71,70:3
71,72:3
71,80:3
79,1:1
79,2:1
79,3:1
79,4:1
79,6:1
79,8:1
79,9:2
79,13:2
79,14:2
79,15:2
79,16:1
79,17:2
79,18:1
79,19:1
79,20:1
79,21:1
79,22:1
79,23:1
79,24:1
79,25:1
79,26:2
79,27:1
79,28:2
79,29:1
79,30:1
79,31:1
79,32:1
79,33:3
79,34:3
79,35:2
79,36:2
79,37:3
79,38:3
79,39:3
79,40:1
79,41:1
79,42:1
79,43:1
79,44:1
79,45:1
79,46:1
79,47:1
79,48:3
79,49:1
79,50:1
79,51:1
79,58:2
79,59:3
79,60:1
79,61:1
79,64:2
79,66:1
79,69:3
79,70:3
79,72:3
79,73:3
79,74:3
79,75:3
79,76:3
79,77:3
79,78:3
79,80:3
81,1:1
81,2:1
81,3:1
81,4:1
81,6:1
81,8:1
81,9:2
81,13:2
81,14:2
81,15:2
81,16:1
81,17:2
81,18:1
81,19:1
81,20:1
81,21:1
81,22:1
81,23:1
81,24:1
81,25:1
81,26:2
81,27:1
81,28:2
81,29:1
81,30:1
81,31:1
81,32:1
81,33:3
81,34:3
81,35:2
81,36:2
81,37:3
81,38:3
81,39:3
81,40:1
81,41:1
81,42:1
81,43:1
81,44:1
81,45:1
81,46:1
81,47:1
81,48:3
81,49:1
81,50:1
81,51:1
81,58:2
81,59:3
81,60:1
81,61:1
81,64:2
81,66:1
81,69:3
81,70:3
81,72:3
81,73:3
81,74:3
81,75:3
81,76:3
81,77:3
81,78:3
81,80:3
82,1:1
82,2:1
82,3:1
82,4:1
82,6:1
82,8:1
82,9:2
82,13:2
82,14:2
82,15:2
82,16:1
82,17:2
82,18:1
82,19:1
82,20:1
82,21:1
82,22:1
82,23:1
82,24:1
82,25:1
82,26:2
82,27:1
82,28:2
82,29:1
82,30:1
82,31:1
82,32:1
82,33:3
82,34:3
82,35:2
82,36:2
82,37:3
82,38:3
82,39:3
82,40:1
82,41:1
82,42:1
82,43:1
82,44:1
82,45:1
82,46:1
82,47:1
82,48:3
82,49:1
82,50:1
82,51:1
82,58:2
82,59:3
82,60:1
82,61:1
82,64:2
82,66:1
82,69:3
82,70:3
82,72:3
82,73:3
82,74:3
82,75:3
82,76:3
82,77:3
82,78:3
82,80:3
83,33:1
83,34:1
83,37:1
83,38:1
83,39:1
83,48:1
83,59:1
83,69:1
83,70:1
83,72:1
83,73:1
83,74:1
83,75:1
83,76:1
83,77:1
83,78:1
83,80:1
84,1:1
84,2:1
84,3:1
84,4:1
84,6:1
84,8:1
84,9:2
84,13:2
84,14:2
84,15:2
84,16:1
84,17:2
84,18:1
84,19:1
84,20:1
84,21:1
84,22:1
84,23:1
84,24:1
84,25:1
84,26:2
84,27:1
84,28:2
84,29:1
84,30:1
84,31:1
84,32:1
84,33:3
84,34:3
84,35:2
84,36:2
84,37:3
84,38:3
84,39:3
84,40:1
84,41:1
84,42:1
84,43:1
84,44:1
84,45:1
84,46:1
84,47:1
84,48:3
84,49:1
84,50:1
84,51:1
84,58:2
84,59:3
84,60:1
84,61:1
84,64:2
84,66:1
84,69:3
84,70:3
84,72:3
84,73:3
84,74:3
84,75:3
84,76:3
84,77:3
84,78:3
84,80:3
84,83:2
85,1:1
85,2:1
85,3:1
85,4:1
85,6:1
85,8:1
85,9:2
85,13:2
85,14:2
85,15:2
85,16:1
85,17:2
85,18:1
85,19:1
85,20:1
85,21:1
85,22:1
85,23:1
85,24:1
85,25:1
85,26:2
85,27:1
85,28:2
85,29:1
85,30:1
85,31:1
85,32:1
85,33:3
85,34:3
85,35:2
85,36:2
85,37:3
85,38:3
85,39:3
85,40:1
85,41:1
85,42:1
85,43:1
85,44:1
85,45:1
85,46:1
85,47:1
85,48:3
85,49:1
85,50:1
85,51:1
85,58:2
85,59:3
85,60:1
85,61:1
85,64:2
85,66:1
85,69:3
85,70:3
85,72:3
85,73:3
85,74:3
85,75:3
85,76:3
85,77:3
85,78:3
85,80:3
85,83:2
86,33:1
86,34:1
86,37:1
86,38:1
86,39:1
86,48:1
86,59:1
86,69:1
86,70:1
86,72:1
86,73:1
86,74:1
86,75:1
86,76:1
86,77:1
86,78:1
86,80:1
87,33:1
87,34:1
87,37:1
87,38:1
87,39:1
87,48:1
87,59:1
87,69:1
87,70:1
87,72:1
87,73:1
87,74:1
87,75:1
87,76:1
87,77:1
87,78:1
87,80:1
88,33:1
88,34:1
88,37:1
88,38:1
88,39:1
88,48:1
88,59:1
88,69:1
88,70:1
88,72:1
88,73:1
88,74:1
88,75:1
88,76:1
88,77:1
88,78:1
88,80:1
89,33:1
89,34:1
89,37:1
89,38:1
89,39:1
89,48:1
89,59:1
89,69:1
89,70:1
89,72:1
89,73:1
89,74:1
89,75:1
89,76:1
89,77:1
89,78:1
89,80:1

<end>

<optimal SALBP-1 value>
18


<rand seed>
467321153

